c Sudoku solution
p cnf 729 0
128 0
152 0
197 0
251 0
268 0
316 0
354 0
375 0
458 0
515 0
536 0
593 0
633 0
618 0
644 0
692 0
734 0
748 0
772 0
799 0
819 0
855 0
886 0
941 0
977 0
995 0
725 0
926 0
589 0
578 0
524 0
561 0
542 0
557 0
847 0
717 0
781 0
367 0
766 0
753 0
959 0
656 0
671 0
391 0
388 0
282 0
898 0
938 0
279 0
183 0
463 0
873 0
984 0
913 0
864 0
962 0
412 0
111 0
214 0
174 0
296 0
146 0
476 0
494 0
135 0
237 0
223 0
169 0
245 0
343 0
449 0
665 0
485 0
687 0
427 0
431 0
629 0
821 0
832 0
322 0
339 0
